r = [
0,34,27,9,36,39,16,35,15,30,12,3,16,17,5,12,19,3,18,15,39,19,25,20,40,16,0
];
p = [
0,29,6,13,17,4,28,29,19,27,21,16,23,3,11,27,30,10,6,18,5,9,14,29,15,10,0
];
e = [
0,6,1,19,7,2,3,10,12,1,19,4,10,7,8,8,19,17,20,3,5,3,11,4,8,6,0
];
d = [
0,333,302,241,556,554,297,524,356,561,527,540,492,425,545,230,531,513,311,310,371,561,280,228,567,541,585
];
d_bar = [
0,359,307,253,571,558,322,550,373,585,546,554,513,428,555,254,558,522,316,326,376,569,293,254,581,550,585
];
w = [
0,0.230769231,0.2,1.583333333,0.466666667,0.5,0.12,0.384615385,0.705882353,0.041666667,1,0.285714286,0.476190476,2.333333333,0.8,0.333333333,0.703703704,1.888888889,4,0.1875,1,0.375,0.846153846,0.153846154,0.571428571,0.666666667,0
];
